184
2014
139
0 3
0 8
0 64
0 81
0 94
0 103
0 106
0 146
1 2
1 9
1 14
1 41
1 95
1 98
1 107
2 9
2 14
2 18
2 24
2 25
2 28
2 29
2 30
2 33
2 34
2 35
2 41
2 43
2 95
2 98
2 107
3 8
3 15
3 16
3 17
3 20
3 23
3 27
3 30
3 36
3 39
3 44
3 45
3 47
3 49
3 53
3 57
3 64
3 71
3 81
3 94
3 103
3 106
3 122
3 139
3 140
3 146
3 151
3 167
3 179
4 5
4 6
4 7
4 10
4 19
4 21
4 22
4 31
4 32
4 37
4 72
4 96
4 97
4 99
4 138
4 154
4 166
4 180
5 6
5 7
5 10
5 19
5 21
5 22
5 31
5 32
5 37
5 72
6 7
6 10
6 19
6 21
6 22
6 31
6 32
6 37
6 72
6 88
6 90
6 91
6 100
6 101
6 102
6 104
7 10
7 19
7 21
7 22
7 31
7 32
7 37
7 72
7 88
7 90
7 91
7 100
7 101
7 102
7 104
7 110
7 115
7 125
7 126
7 127
8 15
8 16
8 17
8 20
8 23
8 27
8 36
8 46
8 48
8 50
8 51
8 52
8 59
8 60
8 64
8 81
8 89
8 94
8 103
8 106
8 136
8 138
8 141
8 142
8 146
9 14
9 18
9 24
9 25
9 28
9 29
9 30
9 33
9 34
9 35
9 41
9 43
9 53
9 61
9 62
9 68
9 74
9 75
9 76
9 77
9 79
9 92
9 95
9 98
9 107
9 128
10 19
10 21
10 22
10 31
10 32
10 37
10 72
10 78
10 88
10 90
10 91
10 100
10 101
10 102
10 104
10 109
10 111
10 116
10 158
10 161
10 162
10 163
10 165
10 167
10 171
10 172
10 173
11 13
11 18
11 24
11 25
11 31
11 32
11 37
11 42
11 43
11 63
11 64
11 67
11 72
11 84
11 117
11 129
11 133
11 148
11 161
11 174
12 14
12 19
12 21
12 22
12 38
12 41
12 54
12 130
13 18
13 24
13 25
13 42
13 43
13 67
13 84
13 133
13 148
14 19
14 21
14 22
14 38
14 41
14 54
14 95
14 98
14 107
14 130
15 16
15 17
15 20
15 23
15 27
15 36
15 103
16 17
16 20
16 23
16 27
16 36
16 39
16 44
16 45
16 47
16 49
16 53
16 103
16 139
16 140
16 151
17 20
17 23
17 27
17 36
17 46
17 48
17 50
17 51
17 52
17 59
17 60
17 89
17 103
17 111
17 129
17 132
17 135
17 136
17 137
17 143
17 144
17 149
17 152
17 161
17 165
17 167
17 174
17 175
17 178
17 179
18 24
18 25
18 28
18 29
18 30
18 33
18 34
18 35
18 42
18 43
18 67
18 84
18 98
18 133
18 148
19 21
19 22
19 31
19 32
19 37
19 38
19 41
19 54
19 72
19 96
19 97
19 99
19 130
19 138
19 154
19 166
19 180
20 23
20 27
20 30
20 36
20 39
20 44
20 45
20 47
20 49
20 53
20 57
20 71
20 103
20 122
20 139
20 140
20 151
20 167
20 179
21 22
21 31
21 32
21 37
21 38
21 41
21 54
21 72
21 130
22 31
22 32
22 37
22 38
22 41
22 54
22 72
22 88
22 90
22 91
22 100
22 101
22 102
22 104
22 130
23 24
23 27
23 33
23 34
23 35
23 36
23 39
23 44
23 45
23 47
23 49
23 53
23 56
23 58
23 61
23 62
23 73
23 78
23 83
23 86
23 92
23 97
23 103
23 139
23 140
23 151
24 25
24 28
24 29
24 30
24 33
24 34
24 35
24 42
24 43
24 49
24 58
24 67
24 73
24 78
24 84
24 98
24 133
24 148
25 28
25 29
25 30
25 33
25 34
25 35
25 42
25 43
25 53
25 61
25 62
25 67
25 68
25 74
25 75
25 76
25 77
25 79
25 84
25 92
25 98
25 128
25 133
25 148
26 27
26 36
26 65
26 105
26 132
27 36
27 65
27 103
27 105
27 132
28 29
28 30
28 33
28 34
28 35
28 43
28 67
28 69
28 70
28 71
28 98
28 111
28 112
28 120
28 121
28 122
28 135
28 164
28 167
28 179
29 30
29 33
29 34
29 35
29 43
29 98
30 33
30 34
30 35
30 39
30 43
30 45
30 47
30 57
30 67
30 69
30 70
30 71
30 98
30 111
30 112
30 120
30 121
30 122
30 135
30 139
30 140
30 164
30 167
30 179
31 32
31 37
31 63
31 64
31 72
31 96
31 97
31 99
31 117
31 129
31 138
31 154
31 161
31 166
31 174
31 180
32 37
32 63
32 64
32 72
32 117
32 129
32 161
32 174
33 34
33 35
33 43
33 46
33 49
33 58
33 73
33 78
33 98
33 106
33 107
33 113
33 118
33 123
33 124
33 125
33 126
33 127
33 138
33 141
33 145
33 146
33 154
33 160
33 166
33 168
33 180
33 181
34 35
34 43
34 49
34 58
34 73
34 78
34 98
34 118
34 123
34 124
34 125
34 126
34 127
35 43
35 49
35 58
35 73
35 78
35 98
36 46
36 48
36 50
36 51
36 52
36 59
36 60
36 65
36 89
36 103
36 105
36 132
36 136
36 138
36 141
36 142
37 63
37 64
37 72
37 78
37 88
37 90
37 91
37 100
37 101
37 102
37 104
37 109
37 111
37 116
37 117
37 129
37 158
37 161
37 174
38 40
38 41
38 42
38 43
38 54
38 67
38 82
38 84
38 130
38 131
38 133
38 147
38 148
38 162
39 44
39 45
39 47
39 49
39 53
39 57
39 71
39 80
39 81
39 87
39 88
39 90
39 91
39 93
39 94
39 95
39 98
39 103
39 106
39 107
39 118
39 122
39 139
39 140
39 145
39 146
39 151
39 160
39 167
39 179
40 41
40 42
40 43
40 54
40 67
40 82
40 84
40 130
40 131
40 133
40 147
40 148
40 162
41 42
41 43
41 54
41 67
41 82
41 84
41 95
41 98
41 107
41 130
41 131
41 133
41 147
41 148
41 162
42 43
42 54
42 67
42 82
42 84
42 130
42 131
42 133
42 147
42 148
42 162
43 54
43 67
43 82
43 84
43 98
43 130
43 131
43 133
43 147
43 148
43 162
44 45
44 47
44 49
44 53
44 56
44 58
44 61
44 62
44 83
44 86
44 92
44 97
44 139
44 140
44 151
45 47
45 49
45 53
45 57
45 71
45 122
45 139
45 140
45 151
45 167
45 179
46 48
46 50
46 51
46 52
46 59
46 60
46 89
46 103
46 106
46 107
46 113
46 118
46 123
46 136
46 138
46 141
46 142
46 145
46 146
46 153
46 154
46 155
46 158
46 160
46 166
46 168
46 180
46 181
47 49
47 53
47 57
47 71
47 80
47 81
47 87
47 88
47 90
47 91
47 122
47 139
47 140
47 151
47 167
47 179
48 50
48 51
48 52
48 59
48 60
48 89
48 103
48 136
48 138
48 141
48 142
48 145
48 146
48 153
48 154
48 155
48 158
49 53
49 56
49 58
49 61
49 62
49 73
49 78
49 83
49 86
49 92
49 97
49 139
49 140
49 151
50 51
50 52
50 59
50 60
50 89
50 103
51 52
51 59
51 60
51 89
51 103
51 136
51 138
51 141
51 142
52 59
52 60
52 77
52 89
52 103
52 127
52 128
52 129
52 132
52 135
52 137
52 143
52 144
52 159
52 180
52 181
52 182
53 56
53 58
53 61
53 62
53 68
53 74
53 75
53 76
53 77
53 79
53 83
53 86
53 92
53 97
53 128
53 139
53 140
53 151
54 55
54 59
54 60
54 67
54 69
54 82
54 84
54 85
54 89
54 120
54 130
54 131
54 133
54 147
54 148
54 162
55 59
55 60
55 67
55 69
55 82
55 84
55 85
55 89
55 120
56 58
56 61
56 62
56 83
56 86
56 92
56 97
57 71
57 122
57 139
57 140
57 167
57 179
58 61
58 62
58 73
58 78
58 83
58 86
58 92
58 97
59 60
59 67
59 69
59 82
59 84
59 85
59 89
59 103
59 120
60 67
60 69
60 82
60 84
60 85
60 89
60 103
60 120
60 136
60 138
60 141
60 142
61 62
61 68
61 74
61 75
61 76
61 77
61 79
61 83
61 86
61 92
61 97
61 128
61 172
61 177
62 68
62 74
62 75
62 76
62 77
62 79
62 83
62 86
62 92
62 97
62 128
63 64
63 65
63 66
63 72
63 83
63 105
63 108
63 117
63 119
63 129
63 132
63 149
63 161
63 174
63 175
64 65
64 66
64 72
64 81
64 83
64 94
64 103
64 105
64 106
64 108
64 117
64 119
64 129
64 132
64 146
64 149
64 161
64 174
64 175
65 66
65 72
65 83
65 105
65 108
65 117
65 119
65 129
65 132
65 149
65 161
65 174
65 175
66 72
66 83
66 105
66 108
66 117
66 119
66 129
66 132
66 149
66 161
66 174
66 175
67 69
67 70
67 71
67 82
67 84
67 85
67 89
67 111
67 112
67 120
67 121
67 122
67 130
67 131
67 133
67 135
67 147
67 148
67 162
67 164
67 167
67 179
68 74
68 75
68 76
68 77
68 79
68 92
68 109
68 110
68 128
68 130
68 131
68 133
68 134
68 139
68 140
68 147
68 148
68 150
68 151
68 156
68 162
68 163
68 171
68 176
68 177
68 183
69 70
69 71
69 82
69 84
69 85
69 89
69 111
69 112
69 120
69 121
69 122
69 135
69 164
69 167
69 179
70 71
70 111
70 112
70 120
70 121
70 122
70 135
70 164
70 167
70 179
71 111
71 112
71 120
71 121
71 122
71 135
71 139
71 140
71 164
71 167
71 179
72 83
72 96
72 97
72 99
72 105
72 108
72 117
72 119
72 129
72 132
72 138
72 149
72 154
72 161
72 166
72 174
72 175
72 180
73 78
74 75
74 76
74 77
74 79
74 92
74 102
74 115
74 125
74 128
74 147
74 148
74 150
74 151
74 157
74 172
74 177
75 76
75 77
75 79
75 92
75 109
75 110
75 128
75 156
75 162
75 163
75 171
75 176
75 183
76 77
76 79
76 92
76 128
76 172
76 177
77 79
77 92
77 127
77 128
77 143
77 159
77 180
77 181
77 182
78 91
78 109
78 111
78 116
78 118
78 123
78 124
78 125
78 126
78 127
78 158
79 92
79 128
80 81
80 87
80 88
80 90
80 91
80 93
80 94
80 95
80 98
80 103
80 106
80 107
80 118
80 140
80 145
80 146
80 160
81 87
81 88
81 90
81 91
81 93
81 94
81 95
81 98
81 103
81 106
81 107
81 118
81 140
81 145
81 146
81 160
82 83
82 84
82 85
82 86
82 89
82 92
82 96
82 97
82 120
82 130
82 131
82 133
82 147
82 148
82 162
83 84
83 85
83 86
83 89
83 92
83 96
83 97
83 105
83 108
83 117
83 119
83 129
83 132
83 149
83 161
83 174
83 175
84 85
84 86
84 89
84 92
84 96
84 97
84 120
84 130
84 131
84 133
84 147
84 148
84 162
85 86
85 89
85 92
85 96
85 97
85 120
86 89
86 92
86 96
86 97
87 88
87 90
87 91
87 140
88 90
88 91
88 100
88 101
88 102
88 104
88 140
89 92
89 96
89 97
89 103
89 120
90 91
90 100
90 101
90 102
90 104
90 110
90 115
90 125
90 126
90 127
90 140
91 100
91 101
91 102
91 104
91 109
91 111
91 116
91 140
91 158
92 96
92 97
92 128
93 94
93 95
93 98
93 103
93 106
93 107
93 118
93 145
93 146
93 160
94 95
94 98
94 103
94 106
94 107
94 118
94 145
94 146
94 160
95 98
95 103
95 106
95 107
95 118
95 145
95 146
95 160
96 97
96 99
96 138
96 154
96 166
96 180
97 99
97 138
97 154
97 166
97 180
98 103
98 106
98 107
98 118
98 145
98 146
98 160
99 138
99 154
99 166
99 180
100 101
100 102
100 104
101 102
101 104
101 105
101 108
101 112
101 114
101 153
101 164
101 170
101 182
102 104
102 110
102 115
102 125
102 126
102 127
102 147
102 148
102 150
102 151
102 157
102 177
103 106
103 107
103 118
103 145
103 146
103 160
104 110
104 115
104 125
104 126
104 127
105 108
105 112
105 114
105 117
105 119
105 120
105 121
105 122
105 128
105 129
105 132
105 149
105 153
105 161
105 164
105 170
105 174
105 175
105 182
106 107
106 113
106 118
106 123
106 138
106 141
106 145
106 146
106 154
106 160
106 166
106 168
106 180
106 181
107 113
107 118
107 123
107 138
107 141
107 145
107 146
107 154
107 160
107 166
107 168
107 180
107 181
108 112
108 114
108 117
108 119
108 120
108 121
108 122
108 128
108 129
108 132
108 149
108 153
108 161
108 164
108 170
108 174
108 175
108 182
109 110
109 111
109 116
109 130
109 131
109 133
109 134
109 139
109 140
109 147
109 148
109 150
109 151
109 156
109 158
109 161
109 162
109 163
109 165
109 167
109 171
109 172
109 173
109 176
109 177
109 183
110 115
110 125
110 126
110 127
110 130
110 131
110 133
110 134
110 136
110 139
110 140
110 147
110 148
110 149
110 150
110 151
110 152
110 156
110 159
110 162
110 163
110 171
110 176
110 177
110 183
111 112
111 116
111 120
111 121
111 122
111 129
111 132
111 135
111 136
111 137
111 149
111 152
111 158
111 161
111 162
111 163
111 164
111 165
111 167
111 171
111 172
111 173
111 174
111 175
111 178
111 179
112 114
112 117
112 119
112 120
112 121
112 122
112 128
112 135
112 153
112 164
112 167
112 170
112 179
112 182
113 118
113 123
113 138
113 141
113 145
113 146
113 154
113 160
113 166
113 168
113 180
113 181
114 153
114 164
114 170
114 182
115 125
115 126
115 127
115 147
115 148
115 150
115 151
115 157
115 177
116 158
117 119
117 120
117 121
117 122
117 128
117 129
117 132
117 149
117 153
117 161
117 164
117 174
117 175
118 123
118 124
118 125
118 126
118 127
118 138
118 141
118 145
118 146
118 154
118 160
118 166
118 168
118 180
118 181
119 120
119 121
119 122
119 128
119 129
119 132
119 149
119 153
119 161
119 164
119 174
119 175
120 121
120 122
120 128
120 135
120 153
120 164
120 167
120 179
121 122
121 128
121 135
121 153
121 164
121 167
121 179
122 128
122 135
122 139
122 140
122 153
122 164
122 167
122 179
123 124
123 125
123 126
123 127
123 138
123 141
123 145
123 146
123 154
123 160
123 166
123 168
123 180
123 181
124 125
124 126
124 127
125 126
125 127
125 147
125 148
125 150
125 151
125 157
125 177
126 127
127 128
127 136
127 143
127 149
127 152
127 156
127 159
127 180
127 181
127 182
128 143
128 153
128 159
128 164
128 180
128 181
128 182
129 132
129 135
129 136
129 137
129 143
129 144
129 149
129 152
129 161
129 165
129 167
129 174
129 175
129 178
129 179
130 131
130 133
130 134
130 139
130 140
130 147
130 148
130 150
130 151
130 162
130 163
130 176
130 177
131 133
131 134
131 139
131 140
131 147
131 148
131 150
131 151
131 162
131 163
131 176
131 177
132 135
132 136
132 137
132 143
132 144
132 149
132 152
132 161
132 165
132 167
132 174
132 175
132 178
132 179
133 134
133 139
133 140
133 147
133 148
133 150
133 151
133 162
133 163
133 176
133 177
134 139
134 140
134 147
134 148
134 150
134 151
134 162
134 163
134 176
134 177
135 136
135 137
135 143
135 144
135 149
135 152
135 161
135 164
135 165
135 167
135 174
135 175
135 178
135 179
136 137
136 138
136 141
136 142
136 149
136 152
136 156
136 159
136 161
136 165
136 167
136 174
136 175
136 178
136 179
137 143
137 144
137 149
137 152
137 161
137 165
137 167
137 174
137 175
137 178
137 179
138 141
138 142
138 145
138 146
138 153
138 154
138 155
138 158
138 160
138 166
138 168
138 180
138 181
139 140
139 147
139 148
139 150
139 151
139 162
139 163
139 167
139 176
139 177
139 179
140 147
140 148
140 150
140 151
140 162
140 163
140 167
140 176
140 177
140 179
141 142
141 145
141 146
141 153
141 154
141 155
141 158
141 160
141 166
141 168
141 180
141 181
143 144
143 159
143 180
143 181
143 182
145 146
145 153
145 154
145 155
145 158
145 160
145 166
145 168
145 180
145 181
146 153
146 154
146 155
146 158
146 160
146 166
146 168
146 180
146 181
147 148
147 150
147 151
147 157
147 162
147 163
147 176
147 177
148 150
148 151
148 157
148 162
148 163
148 176
148 177
149 152
149 156
149 159
149 161
149 165
149 167
149 174
149 175
149 178
149 179
150 151
150 157
150 162
150 163
150 176
150 177
151 157
151 162
151 163
151 176
151 177
152 156
152 159
152 161
152 165
152 167
152 174
152 175
152 178
152 179
153 154
153 155
153 158
153 164
153 170
153 182
154 155
154 158
154 160
154 166
154 168
154 180
154 181
155 158
156 159
156 162
156 163
156 171
156 176
156 183
157 177
159 180
159 181
159 182
160 164
160 166
160 168
160 169
160 170
160 180
160 181
160 182
161 162
161 163
161 165
161 167
161 171
161 172
161 173
161 174
161 175
161 178
161 179
162 163
162 165
162 167
162 171
162 172
162 173
162 176
162 177
162 183
163 165
163 167
163 171
163 172
163 173
163 176
163 177
163 183
164 166
164 167
164 168
164 169
164 170
164 179
164 180
164 181
164 182
165 167
165 171
165 172
165 173
165 174
165 175
165 178
165 179
166 168
166 169
166 170
166 180
166 181
166 182
167 171
167 172
167 173
167 174
167 175
167 178
167 179
168 169
168 170
168 180
168 181
168 182
169 170
169 180
169 181
169 182
170 180
170 181
170 182
171 172
171 173
171 176
171 183
172 173
172 177
174 175
174 178
174 179
175 178
175 179
176 177
176 183
178 179
180 181
180 182
181 182
0
1
2
3 4
5
6
7 8
9 10
11 12
13 14
15
16
17 18
19 20
21
22
23 24
25
26
27
28
29
30 31
32 33
34
35
36
37
38 39
40
41 42
43 44
45
46 47
48
49
50
51
52
53
54
55
56
57
58
59
60 61
62
63
64 65
66 67
68 69
70
71 72
73
74 75
76
77 78
79
80
81 82
83 84
85
86
87
88
89
90
91
92
93
94
95
96
97 98
99
100
101
102 103
104
105 106
107 108
109 110
111 112
113
114
115
116
117 118
119
120
121
122
123
124
125
126
127 128
129 130
131 132
133
134
135
136 137
138 139
140 141
142
143
144
145
146 147
148 149
150
151
152 153
154
155
156 157
158 159
160 161
162
163
164
165
166 167
168
169
170
171
172
173
174
175
176 177
178
179 180
181
182
183
